c description: Tseitin formula on , with even charge
c generator: CNFgen (0.9.0)
c copyright: (C) 2012-2020 Massimo Lauria <massimo.lauria@uniroma1.it>
c url: https://massimolauria.net/cnfgen
c
p cnf 30 376
1 2 3 4 5 -6 0
1 2 3 4 -5 6 0
1 2 3 -4 5 6 0
1 2 3 -4 -5 -6 0
1 2 -3 4 5 6 0
1 2 -3 4 -5 -6 0
1 2 -3 -4 5 -6 0
1 2 -3 -4 -5 6 0
1 -2 3 4 5 6 0
1 -2 3 4 -5 -6 0
1 -2 3 -4 5 -6 0
1 -2 3 -4 -5 6 0
1 -2 -3 4 5 -6 0
1 -2 -3 4 -5 6 0
1 -2 -3 -4 5 6 0
1 -2 -3 -4 -5 -6 0
-1 2 3 4 5 6 0
-1 2 3 4 -5 -6 0
-1 2 3 -4 5 -6 0
-1 2 3 -4 -5 6 0
-1 2 -3 4 5 -6 0
-1 2 -3 4 -5 6 0
-1 2 -3 -4 5 6 0
-1 2 -3 -4 -5 -6 0
-1 -2 3 4 5 -6 0
-1 -2 3 4 -5 6 0
-1 -2 3 -4 5 6 0
-1 -2 3 -4 -5 -6 0
-1 -2 -3 4 5 6 0
-1 -2 -3 4 -5 -6 0
-1 -2 -3 -4 5 -6 0
-1 -2 -3 -4 -5 6 0
1 7 8 9 10 11 -12 0
1 7 8 9 10 -11 12 0
1 7 8 9 -10 11 12 0
1 7 8 9 -10 -11 -12 0
1 7 8 -9 10 11 12 0
1 7 8 -9 10 -11 -12 0
1 7 8 -9 -10 11 -12 0
1 7 8 -9 -10 -11 12 0
1 7 -8 9 10 11 12 0
1 7 -8 9 10 -11 -12 0
1 7 -8 9 -10 11 -12 0
1 7 -8 9 -10 -11 12 0
1 7 -8 -9 10 11 -12 0
1 7 -8 -9 10 -11 12 0
1 7 -8 -9 -10 11 12 0
1 7 -8 -9 -10 -11 -12 0
1 -7 8 9 10 11 12 0
1 -7 8 9 10 -11 -12 0
1 -7 8 9 -10 11 -12 0
1 -7 8 9 -10 -11 12 0
1 -7 8 -9 10 11 -12 0
1 -7 8 -9 10 -11 12 0
1 -7 8 -9 -10 11 12 0
1 -7 8 -9 -10 -11 -12 0
1 -7 -8 9 10 11 -12 0
1 -7 -8 9 10 -11 12 0
1 -7 -8 9 -10 11 12 0
1 -7 -8 9 -10 -11 -12 0
1 -7 -8 -9 10 11 12 0
1 -7 -8 -9 10 -11 -12 0
1 -7 -8 -9 -10 11 -12 0
1 -7 -8 -9 -10 -11 12 0
-1 7 8 9 10 11 12 0
-1 7 8 9 10 -11 -12 0
-1 7 8 9 -10 11 -12 0
-1 7 8 9 -10 -11 12 0
-1 7 8 -9 10 11 -12 0
-1 7 8 -9 10 -11 12 0
-1 7 8 -9 -10 11 12 0
-1 7 8 -9 -10 -11 -12 0
-1 7 -8 9 10 11 -12 0
-1 7 -8 9 10 -11 12 0
-1 7 -8 9 -10 11 12 0
-1 7 -8 9 -10 -11 -12 0
-1 7 -8 -9 10 11 12 0
-1 7 -8 -9 10 -11 -12 0
-1 7 -8 -9 -10 11 -12 0
-1 7 -8 -9 -10 -11 12 0
-1 -7 8 9 10 11 -12 0
-1 -7 8 9 10 -11 12 0
-1 -7 8 9 -10 11 12 0
-1 -7 8 9 -10 -11 -12 0
-1 -7 8 -9 10 11 12 0
-1 -7 8 -9 10 -11 -12 0
-1 -7 8 -9 -10 11 -12 0
-1 -7 8 -9 -10 -11 12 0
-1 -7 -8 9 10 11 12 0
-1 -7 -8 9 10 -11 -12 0
-1 -7 -8 9 -10 11 -12 0
-1 -7 -8 9 -10 -11 12 0
-1 -7 -8 -9 10 11 -12 0
-1 -7 -8 -9 10 -11 12 0
-1 -7 -8 -9 -10 11 12 0
-1 -7 -8 -9 -10 -11 -12 0
2 13 14 15 16 -17 0
2 13 14 15 -16 17 0
2 13 14 -15 16 17 0
2 13 14 -15 -16 -17 0
2 13 -14 15 16 17 0
2 13 -14 15 -16 -17 0
2 13 -14 -15 16 -17 0
2 13 -14 -15 -16 17 0
2 -13 14 15 16 17 0
2 -13 14 15 -16 -17 0
2 -13 14 -15 16 -17 0
2 -13 14 -15 -16 17 0
2 -13 -14 15 16 -17 0
2 -13 -14 15 -16 17 0
2 -13 -14 -15 16 17 0
2 -13 -14 -15 -16 -17 0
-2 13 14 15 16 17 0
-2 13 14 15 -16 -17 0
-2 13 14 -15 16 -17 0
-2 13 14 -15 -16 17 0
-2 13 -14 15 16 -17 0
-2 13 -14 15 -16 17 0
-2 13 -14 -15 16 17 0
-2 13 -14 -15 -16 -17 0
-2 -13 14 15 16 -17 0
-2 -13 14 15 -16 17 0
-2 -13 14 -15 16 17 0
-2 -13 14 -15 -16 -17 0
-2 -13 -14 15 16 17 0
-2 -13 -14 15 -16 -17 0
-2 -13 -14 -15 16 -17 0
-2 -13 -14 -15 -16 17 0
7 13 18 19 -20 0
7 13 18 -19 20 0
7 13 -18 19 20 0
7 13 -18 -19 -20 0
7 -13 18 19 20 0
7 -13 18 -19 -20 0
7 -13 -18 19 -20 0
7 -13 -18 -19 20 0
-7 13 18 19 20 0
-7 13 18 -19 -20 0
-7 13 -18 19 -20 0
-7 13 -18 -19 20 0
-7 -13 18 19 -20 0
-7 -13 18 -19 20 0
-7 -13 -18 19 20 0
-7 -13 -18 -19 -20 0
8 14 18 21 22 -23 0
8 14 18 21 -22 23 0
8 14 18 -21 22 23 0
8 14 18 -21 -22 -23 0
8 14 -18 21 22 23 0
8 14 -18 21 -22 -23 0
8 14 -18 -21 22 -23 0
8 14 -18 -21 -22 23 0
8 -14 18 21 22 23 0
8 -14 18 21 -22 -23 0
8 -14 18 -21 22 -23 0
8 -14 18 -21 -22 23 0
8 -14 -18 21 22 -23 0
8 -14 -18 21 -22 23 0
8 -14 -18 -21 22 23 0
8 -14 -18 -21 -22 -23 0
-8 14 18 21 22 23 0
-8 14 18 21 -22 -23 0
-8 14 18 -21 22 -23 0
-8 14 18 -21 -22 23 0
-8 14 -18 21 22 -23 0
-8 14 -18 21 -22 23 0
-8 14 -18 -21 22 23 0
-8 14 -18 -21 -22 -23 0
-8 -14 18 21 22 -23 0
-8 -14 18 21 -22 23 0
-8 -14 18 -21 22 23 0
-8 -14 18 -21 -22 -23 0
-8 -14 -18 21 22 23 0
-8 -14 -18 21 -22 -23 0
-8 -14 -18 -21 22 -23 0
-8 -14 -18 -21 -22 23 0
3 9 24 -25 0
3 9 -24 25 0
3 -9 24 25 0
3 -9 -24 -25 0
-3 9 24 25 0
-3 9 -24 -25 0
-3 -9 24 -25 0
-3 -9 -24 25 0
10 15 19 21 26 -27 0
10 15 19 21 -26 27 0
10 15 19 -21 26 27 0
10 15 19 -21 -26 -27 0
10 15 -19 21 26 27 0
10 15 -19 21 -26 -27 0
10 15 -19 -21 26 -27 0
10 15 -19 -21 -26 27 0
10 -15 19 21 26 27 0
10 -15 19 21 -26 -27 0
10 -15 19 -21 26 -27 0
10 -15 19 -21 -26 27 0
10 -15 -19 21 26 -27 0
10 -15 -19 21 -26 27 0
10 -15 -19 -21 26 27 0
10 -15 -19 -21 -26 -27 0
-10 15 19 21 26 27 0
-10 15 19 21 -26 -27 0
-10 15 19 -21 26 -27 0
-10 15 19 -21 -26 27 0
-10 15 -19 21 26 -27 0
-10 15 -19 21 -26 27 0
-10 15 -19 -21 26 27 0
-10 15 -19 -21 -26 -27 0
-10 -15 19 21 26 -27 0
-10 -15 19 21 -26 27 0
-10 -15 19 -21 26 27 0
-10 -15 19 -21 -26 -27 0
-10 -15 -19 21 26 27 0
-10 -15 -19 21 -26 -27 0
-10 -15 -19 -21 26 -27 0
-10 -15 -19 -21 -26 27 0
4 11 16 22 26 28 -29 0
4 11 16 22 26 -28 29 0
4 11 16 22 -26 28 29 0
4 11 16 22 -26 -28 -29 0
4 11 16 -22 26 28 29 0
4 11 16 -22 26 -28 -29 0
4 11 16 -22 -26 28 -29 0
4 11 16 -22 -26 -28 29 0
4 11 -16 22 26 28 29 0
4 11 -16 22 26 -28 -29 0
4 11 -16 22 -26 28 -29 0
4 11 -16 22 -26 -28 29 0
4 11 -16 -22 26 28 -29 0
4 11 -16 -22 26 -28 29 0
4 11 -16 -22 -26 28 29 0
4 11 -16 -22 -26 -28 -29 0
4 -11 16 22 26 28 29 0
4 -11 16 22 26 -28 -29 0
4 -11 16 22 -26 28 -29 0
4 -11 16 22 -26 -28 29 0
4 -11 16 -22 26 28 -29 0
4 -11 16 -22 26 -28 29 0
4 -11 16 -22 -26 28 29 0
4 -11 16 -22 -26 -28 -29 0
4 -11 -16 22 26 28 -29 0
4 -11 -16 22 26 -28 29 0
4 -11 -16 22 -26 28 29 0
4 -11 -16 22 -26 -28 -29 0
4 -11 -16 -22 26 28 29 0
4 -11 -16 -22 26 -28 -29 0
4 -11 -16 -22 -26 28 -29 0
4 -11 -16 -22 -26 -28 29 0
-4 11 16 22 26 28 29 0
-4 11 16 22 26 -28 -29 0
-4 11 16 22 -26 28 -29 0
-4 11 16 22 -26 -28 29 0
-4 11 16 -22 26 28 -29 0
-4 11 16 -22 26 -28 29 0
-4 11 16 -22 -26 28 29 0
-4 11 16 -22 -26 -28 -29 0
-4 11 -16 22 26 28 -29 0
-4 11 -16 22 26 -28 29 0
-4 11 -16 22 -26 28 29 0
-4 11 -16 22 -26 -28 -29 0
-4 11 -16 -22 26 28 29 0
-4 11 -16 -22 26 -28 -29 0
-4 11 -16 -22 -26 28 -29 0
-4 11 -16 -22 -26 -28 29 0
-4 -11 16 22 26 28 -29 0
-4 -11 16 22 26 -28 29 0
-4 -11 16 22 -26 28 29 0
-4 -11 16 22 -26 -28 -29 0
-4 -11 16 -22 26 28 29 0
-4 -11 16 -22 26 -28 -29 0
-4 -11 16 -22 -26 28 -29 0
-4 -11 16 -22 -26 -28 29 0
-4 -11 -16 22 26 28 29 0
-4 -11 -16 22 26 -28 -29 0
-4 -11 -16 22 -26 28 -29 0
-4 -11 -16 22 -26 -28 29 0
-4 -11 -16 -22 26 28 -29 0
-4 -11 -16 -22 26 -28 29 0
-4 -11 -16 -22 -26 28 29 0
-4 -11 -16 -22 -26 -28 -29 0
5 12 23 24 28 -30 0
5 12 23 24 -28 30 0
5 12 23 -24 28 30 0
5 12 23 -24 -28 -30 0
5 12 -23 24 28 30 0
5 12 -23 24 -28 -30 0
5 12 -23 -24 28 -30 0
5 12 -23 -24 -28 30 0
5 -12 23 24 28 30 0
5 -12 23 24 -28 -30 0
5 -12 23 -24 28 -30 0
5 -12 23 -24 -28 30 0
5 -12 -23 24 28 -30 0
5 -12 -23 24 -28 30 0
5 -12 -23 -24 28 30 0
5 -12 -23 -24 -28 -30 0
-5 12 23 24 28 30 0
-5 12 23 24 -28 -30 0
-5 12 23 -24 28 -30 0
-5 12 23 -24 -28 30 0
-5 12 -23 24 28 -30 0
-5 12 -23 24 -28 30 0
-5 12 -23 -24 28 30 0
-5 12 -23 -24 -28 -30 0
-5 -12 23 24 28 -30 0
-5 -12 23 24 -28 30 0
-5 -12 23 -24 28 30 0
-5 -12 23 -24 -28 -30 0
-5 -12 -23 24 28 30 0
-5 -12 -23 24 -28 -30 0
-5 -12 -23 -24 28 -30 0
-5 -12 -23 -24 -28 30 0
6 17 20 25 27 29 -30 0
6 17 20 25 27 -29 30 0
6 17 20 25 -27 29 30 0
6 17 20 25 -27 -29 -30 0
6 17 20 -25 27 29 30 0
6 17 20 -25 27 -29 -30 0
6 17 20 -25 -27 29 -30 0
6 17 20 -25 -27 -29 30 0
6 17 -20 25 27 29 30 0
6 17 -20 25 27 -29 -30 0
6 17 -20 25 -27 29 -30 0
6 17 -20 25 -27 -29 30 0
6 17 -20 -25 27 29 -30 0
6 17 -20 -25 27 -29 30 0
6 17 -20 -25 -27 29 30 0
6 17 -20 -25 -27 -29 -30 0
6 -17 20 25 27 29 30 0
6 -17 20 25 27 -29 -30 0
6 -17 20 25 -27 29 -30 0
6 -17 20 25 -27 -29 30 0
6 -17 20 -25 27 29 -30 0
6 -17 20 -25 27 -29 30 0
6 -17 20 -25 -27 29 30 0
6 -17 20 -25 -27 -29 -30 0
6 -17 -20 25 27 29 -30 0
6 -17 -20 25 27 -29 30 0
6 -17 -20 25 -27 29 30 0
6 -17 -20 25 -27 -29 -30 0
6 -17 -20 -25 27 29 30 0
6 -17 -20 -25 27 -29 -30 0
6 -17 -20 -25 -27 29 -30 0
6 -17 -20 -25 -27 -29 30 0
-6 17 20 25 27 29 30 0
-6 17 20 25 27 -29 -30 0
-6 17 20 25 -27 29 -30 0
-6 17 20 25 -27 -29 30 0
-6 17 20 -25 27 29 -30 0
-6 17 20 -25 27 -29 30 0
-6 17 20 -25 -27 29 30 0
-6 17 20 -25 -27 -29 -30 0
-6 17 -20 25 27 29 -30 0
-6 17 -20 25 27 -29 30 0
-6 17 -20 25 -27 29 30 0
-6 17 -20 25 -27 -29 -30 0
-6 17 -20 -25 27 29 30 0
-6 17 -20 -25 27 -29 -30 0
-6 17 -20 -25 -27 29 -30 0
-6 17 -20 -25 -27 -29 30 0
-6 -17 20 25 27 29 -30 0
-6 -17 20 25 27 -29 30 0
-6 -17 20 25 -27 29 30 0
-6 -17 20 25 -27 -29 -30 0
-6 -17 20 -25 27 29 30 0
-6 -17 20 -25 27 -29 -30 0
-6 -17 20 -25 -27 29 -30 0
-6 -17 20 -25 -27 -29 30 0
-6 -17 -20 25 27 29 30 0
-6 -17 -20 25 27 -29 -30 0
-6 -17 -20 25 -27 29 -30 0
-6 -17 -20 25 -27 -29 30 0
-6 -17 -20 -25 27 29 -30 0
-6 -17 -20 -25 27 -29 30 0
-6 -17 -20 -25 -27 29 30 0
-6 -17 -20 -25 -27 -29 -30 0